\ Model vpr
\ LP format - for model browsing. Use MPS format to capture full model detail.
Minimize
  0 0/0 + 0 0,0,0 + 10 0,0,1 + 14.14213562373095 0,0,2 + 10 0,0,3
   + 14.14213562373095 0,0,4 + 10 0,1,0 + 10 0,1,2 + 20 0,1,3
   + 22.3606797749979 0,1,4 + 14.14213562373095 0,2,0 + 10 0,2,1
   + 22.3606797749979 0,2,3 + 28.2842712474619 0,2,4 + 10 0,3,0 + 20 0,3,1
   + 22.3606797749979 0,3,2 + 10 0,3,4 + 14.14213562373095 0,4,0
   + 22.3606797749979 0,4,1 + 28.2842712474619 0,4,2 + 10 0,4,3 + 0 1/0
   + 0 1,0,0 + 10 1,0,1 + 14.14213562373095 1,0,2 + 10 1,0,3
   + 14.14213562373095 1,0,4 + 10 1,1,0 + 10 1,1,2 + 20 1,1,3
   + 22.3606797749979 1,1,4 + 14.14213562373095 1,2,0 + 10 1,2,1
   + 22.3606797749979 1,2,3 + 28.2842712474619 1,2,4 + 10 1,3,0 + 20 1,3,1
   + 22.3606797749979 1,3,2 + 10 1,3,4 + 14.14213562373095 1,4,0
   + 22.3606797749979 1,4,1 + 28.2842712474619 1,4,2 + 10 1,4,3 + 0 2/0
   + 0 2,0,0 + 10 2,0,1 + 14.14213562373095 2,0,2 + 10 2,0,3
   + 14.14213562373095 2,0,4 + 10 2,1,0 + 10 2,1,2 + 20 2,1,3
   + 22.3606797749979 2,1,4 + 14.14213562373095 2,2,0 + 10 2,2,1
   + 22.3606797749979 2,2,3 + 28.2842712474619 2,2,4 + 10 2,3,0 + 20 2,3,1
   + 22.3606797749979 2,3,2 + 10 2,3,4 + 14.14213562373095 2,4,0
   + 22.3606797749979 2,4,1 + 28.2842712474619 2,4,2 + 10 2,4,3 + 0 3/0
   + 0 3,0,0 + 10 3,0,1 + 14.14213562373095 3,0,2 + 10 3,0,3
   + 14.14213562373095 3,0,4 + 10 3,1,0 + 10 3,1,2 + 20 3,1,3
   + 22.3606797749979 3,1,4 + 14.14213562373095 3,2,0 + 10 3,2,1
   + 22.3606797749979 3,2,3 + 28.2842712474619 3,2,4 + 10 3,3,0 + 20 3,3,1
   + 22.3606797749979 3,3,2 + 10 3,3,4 + 14.14213562373095 3,4,0
   + 22.3606797749979 3,4,1 + 28.2842712474619 3,4,2 + 10 3,4,3
Subject To
 1=00: - 0,0,1 - 0,0,2 - 0,0,3 - 0,0,4 + 0,1,0 + 0,2,0 + 0,3,0 + 0,4,0 = 0
 1=01: 0,0,1 - 0,1,0 - 0,1,2 - 0,1,3 - 0,1,4 + 0,2,1 + 0,3,1 + 0,4,1 = 0
 1=02: 0,0,2 + 0,1,2 - 0,2,0 - 0,2,1 - 0,2,3 - 0,2,4 + 0,3,2 + 0,4,2 = 0
 1=03: 0,0,3 + 0,1,3 + 0,2,3 - 0,3,0 - 0,3,1 - 0,3,2 - 0,3,4 + 0,4,3 = 0
 1=04: 0,0,4 + 0,1,4 + 0,2,4 + 0,3,4 - 0,4,0 - 0,4,1 - 0,4,2 - 0,4,3 = 0
 1=10: - 1,0,1 - 1,0,2 - 1,0,3 - 1,0,4 + 1,1,0 + 1,2,0 + 1,3,0 + 1,4,0 = 0
 1=11: 1,0,1 - 1,1,0 - 1,1,2 - 1,1,3 - 1,1,4 + 1,2,1 + 1,3,1 + 1,4,1 = 0
 1=12: 1,0,2 + 1,1,2 - 1,2,0 - 1,2,1 - 1,2,3 - 1,2,4 + 1,3,2 + 1,4,2 = 0
 1=13: 1,0,3 + 1,1,3 + 1,2,3 - 1,3,0 - 1,3,1 - 1,3,2 - 1,3,4 + 1,4,3 = 0
 1=14: 1,0,4 + 1,1,4 + 1,2,4 + 1,3,4 - 1,4,0 - 1,4,1 - 1,4,2 - 1,4,3 = 0
 1=20: - 2,0,1 - 2,0,2 - 2,0,3 - 2,0,4 + 2,1,0 + 2,2,0 + 2,3,0 + 2,4,0 = 0
 1=21: 2,0,1 - 2,1,0 - 2,1,2 - 2,1,3 - 2,1,4 + 2,2,1 + 2,3,1 + 2,4,1 = 0
 1=22: 2,0,2 + 2,1,2 - 2,2,0 - 2,2,1 - 2,2,3 - 2,2,4 + 2,3,2 + 2,4,2 = 0
 1=23: 2,0,3 + 2,1,3 + 2,2,3 - 2,3,0 - 2,3,1 - 2,3,2 - 2,3,4 + 2,4,3 = 0
 1=24: 2,0,4 + 2,1,4 + 2,2,4 + 2,3,4 - 2,4,0 - 2,4,1 - 2,4,2 - 2,4,3 = 0
 1=30: - 3,0,1 - 3,0,2 - 3,0,3 - 3,0,4 + 3,1,0 + 3,2,0 + 3,3,0 + 3,4,0 = 0
 1=31: 3,0,1 - 3,1,0 - 3,1,2 - 3,1,3 - 3,1,4 + 3,2,1 + 3,3,1 + 3,4,1 = 0
 1=32: 3,0,2 + 3,1,2 - 3,2,0 - 3,2,1 - 3,2,3 - 3,2,4 + 3,3,2 + 3,4,2 = 0
 1=33: 3,0,3 + 3,1,3 + 3,2,3 - 3,3,0 - 3,3,1 - 3,3,2 - 3,3,4 + 3,4,3 = 0
 1=34: 3,0,4 + 3,1,4 + 3,2,4 + 3,3,4 - 3,4,0 - 3,4,1 - 3,4,2 - 3,4,3 = 0
 2=1: 0,1,0 + 0,1,1 + 0,1,2 + 0,1,3 + 0,1,4 + 1,1,0 + 1,1,1 + 1,1,2 + 1,1,3
   + 1,1,4 + 2,1,0 + 2,1,1 + 2,1,2 + 2,1,3 + 2,1,4 + 3,1,0 + 3,1,1 + 3,1,2
   + 3,1,3 + 3,1,4 = 1
 2=2: 0,2,0 + 0,2,1 + 0,2,2 + 0,2,3 + 0,2,4 + 1,2,0 + 1,2,1 + 1,2,2 + 1,2,3
   + 1,2,4 + 2,2,0 + 2,2,1 + 2,2,2 + 2,2,3 + 2,2,4 + 3,2,0 + 3,2,1 + 3,2,2
   + 3,2,3 + 3,2,4 = 1
 2=3: 0,3,0 + 0,3,1 + 0,3,2 + 0,3,3 + 0,3,4 + 1,3,0 + 1,3,1 + 1,3,2 + 1,3,3
   + 1,3,4 + 2,3,0 + 2,3,1 + 2,3,2 + 2,3,3 + 2,3,4 + 3,3,0 + 3,3,1 + 3,3,2
   + 3,3,3 + 3,3,4 = 1
 2=4: 0,4,0 + 0,4,1 + 0,4,2 + 0,4,3 + 0,4,4 + 1,4,0 + 1,4,1 + 1,4,2 + 1,4,3
   + 1,4,4 + 2,4,0 + 2,4,1 + 2,4,2 + 2,4,3 + 2,4,4 + 3,4,0 + 3,4,1 + 3,4,2
   + 3,4,3 + 3,4,4 = 1
 3=04: 0,0,1 + 0,0,2 + 0,0,3 + 0,0,4 = 1
 3=14: 1,0,1 + 1,0,2 + 1,0,3 + 1,0,4 = 1
 3=24: 2,0,1 + 2,0,2 + 2,0,3 + 2,0,4 = 1
 3=34: 3,0,1 + 3,0,2 + 3,0,3 + 3,0,4 = 1
 4=0: 3 0,1,1 + 3 0,1,2 + 3 0,1,3 + 3 0,1,4 + 3 0,2,1 + 3 0,2,2 + 3 0,2,3
   + 3 0,2,4 + 3 0,3,1 + 3 0,3,2 + 3 0,3,3 + 3 0,3,4 + 3 0,4,1 + 3 0,4,2
   + 3 0,4,3 + 3 0,4,4 <= 10
 4=1: 3 1,1,1 + 3 1,1,2 + 3 1,1,3 + 3 1,1,4 + 3 1,2,1 + 3 1,2,2 + 3 1,2,3
   + 3 1,2,4 + 3 1,3,1 + 3 1,3,2 + 3 1,3,3 + 3 1,3,4 + 3 1,4,1 + 3 1,4,2
   + 3 1,4,3 + 3 1,4,4 <= 10
 4=2: 3 2,1,1 + 3 2,1,2 + 3 2,1,3 + 3 2,1,4 + 3 2,2,1 + 3 2,2,2 + 3 2,2,3
   + 3 2,2,4 + 3 2,3,1 + 3 2,3,2 + 3 2,3,3 + 3 2,3,4 + 3 2,4,1 + 3 2,4,2
   + 3 2,4,3 + 3 2,4,4 <= 10
 4=3: 3 3,1,1 + 3 3,1,2 + 3 3,1,3 + 3 3,1,4 + 3 3,2,1 + 3 3,2,2 + 3 3,2,3
   + 3 3,2,4 + 3 3,3,1 + 3 3,3,2 + 3 3,3,3 + 3 3,3,4 + 3 3,4,1 + 3 3,4,2
   + 3 3,4,3 + 3 3,4,4 <= 10
 5=012: 0/1 - 10 0,1,2 - 0/2 >= -7
 5=013: 0/1 - 10 0,1,3 - 0/3 >= -7
 5=014: 0/1 - 10 0,1,4 - 0/4 >= -7
 5=021: - 0/1 + 0/2 - 10 0,2,1 >= -7
 5=023: 0/2 - 10 0,2,3 - 0/3 >= -7
 5=024: 0/2 - 10 0,2,4 - 0/4 >= -7
 5=031: - 0/1 + 0/3 - 10 0,3,1 >= -7
 5=032: - 0/2 + 0/3 - 10 0,3,2 >= -7
 5=034: 0/3 - 10 0,3,4 - 0/4 >= -7
 5=041: - 0/1 + 0/4 - 10 0,4,1 >= -7
 5=042: - 0/2 + 0/4 - 10 0,4,2 >= -7
 5=043: - 0/3 + 0/4 - 10 0,4,3 >= -7
 5=112: 1/1 - 10 1,1,2 - 1/2 >= -7
 5=113: 1/1 - 10 1,1,3 - 1/3 >= -7
 5=114: 1/1 - 10 1,1,4 - 1/4 >= -7
 5=121: - 1/1 + 1/2 - 10 1,2,1 >= -7
 5=123: 1/2 - 10 1,2,3 - 1/3 >= -7
 5=124: 1/2 - 10 1,2,4 - 1/4 >= -7
 5=131: - 1/1 + 1/3 - 10 1,3,1 >= -7
 5=132: - 1/2 + 1/3 - 10 1,3,2 >= -7
 5=134: 1/3 - 10 1,3,4 - 1/4 >= -7
 5=141: - 1/1 + 1/4 - 10 1,4,1 >= -7
 5=142: - 1/2 + 1/4 - 10 1,4,2 >= -7
 5=143: - 1/3 + 1/4 - 10 1,4,3 >= -7
 5=212: 2/1 - 10 2,1,2 - 2/2 >= -7
 5=213: 2/1 - 10 2,1,3 - 2/3 >= -7
 5=214: 2/1 - 10 2,1,4 - 2/4 >= -7
 5=221: - 2/1 + 2/2 - 10 2,2,1 >= -7
 5=223: 2/2 - 10 2,2,3 - 2/3 >= -7
 5=224: 2/2 - 10 2,2,4 - 2/4 >= -7
 5=231: - 2/1 + 2/3 - 10 2,3,1 >= -7
 5=232: - 2/2 + 2/3 - 10 2,3,2 >= -7
 5=234: 2/3 - 10 2,3,4 - 2/4 >= -7
 5=241: - 2/1 + 2/4 - 10 2,4,1 >= -7
 5=242: - 2/2 + 2/4 - 10 2,4,2 >= -7
 5=243: - 2/3 + 2/4 - 10 2,4,3 >= -7
 5=312: 3/1 - 10 3,1,2 - 3/2 >= -7
 5=313: 3/1 - 10 3,1,3 - 3/3 >= -7
 5=314: 3/1 - 10 3,1,4 - 3/4 >= -7
 5=321: - 3/1 + 3/2 - 10 3,2,1 >= -7
 5=323: 3/2 - 10 3,2,3 - 3/3 >= -7
 5=324: 3/2 - 10 3,2,4 - 3/4 >= -7
 5=331: - 3/1 + 3/3 - 10 3,3,1 >= -7
 5=332: - 3/2 + 3/3 - 10 3,3,2 >= -7
 5=334: 3/3 - 10 3,3,4 - 3/4 >= -7
 5=341: - 3/1 + 3/4 - 10 3,4,1 >= -7
 5=342: - 3/2 + 3/4 - 10 3,4,2 >= -7
 5=343: - 3/3 + 3/4 - 10 3,4,3 >= -7
Bounds
 0/0 <= 10
 0/1 <= 7
 0/2 <= 7
 0/3 <= 7
 0/4 <= 7
 1/0 <= 10
 1/1 <= 7
 1/2 <= 7
 1/3 <= 7
 1/4 <= 7
 2/0 <= 10
 2/1 <= 7
 2/2 <= 7
 2/3 <= 7
 2/4 <= 7
 3/0 <= 10
 3/1 <= 7
 3/2 <= 7
 3/3 <= 7
 3/4 <= 7
Binaries
 0,0,0 0,0,1 0,0,2 0,0,3 0,0,4 0,1,0 0,1,1 0,1,2 0,1,3 0,1,4 0,2,0 0,2,1
 0,2,2 0,2,3 0,2,4 0,3,0 0,3,1 0,3,2 0,3,3 0,3,4 0,4,0 0,4,1 0,4,2 0,4,3
 0,4,4 1,0,0 1,0,1 1,0,2 1,0,3 1,0,4 1,1,0 1,1,1 1,1,2 1,1,3 1,1,4 1,2,0
 1,2,1 1,2,2 1,2,3 1,2,4 1,3,0 1,3,1 1,3,2 1,3,3 1,3,4 1,4,0 1,4,1 1,4,2
 1,4,3 1,4,4 2,0,0 2,0,1 2,0,2 2,0,3 2,0,4 2,1,0 2,1,1 2,1,2 2,1,3 2,1,4
 2,2,0 2,2,1 2,2,2 2,2,3 2,2,4 2,3,0 2,3,1 2,3,2 2,3,3 2,3,4 2,4,0 2,4,1
 2,4,2 2,4,3 2,4,4 3,0,0 3,0,1 3,0,2 3,0,3 3,0,4 3,1,0 3,1,1 3,1,2 3,1,3
 3,1,4 3,2,0 3,2,1 3,2,2 3,2,3 3,2,4 3,3,0 3,3,1 3,3,2 3,3,3 3,3,4 3,4,0
 3,4,1 3,4,2 3,4,3 3,4,4
End
